3389 3154 2965 3103 2943 2906 2955 2830 2726 2723 2946 2878 2718 2697 2687 2572 2539 2486 2427 2333 2317 2279 2242 2200 2182 2155 2109 2093 2049 2027 2017 1994 1969 1961 1943 1921 1894 1883 1870 1849 1838 1813 1796 1779 1755 1735 1712 1687 1669 1647 1630 1621 1604 1593 1577 1556 1524 1516 1513 1507 1501 1489 1469 1456 1453 1444 1440 1432 1425 1413 1406 1400 1391 1382 1378 1375 1372 1365 1364 1355 1347 1340 1332 1324 1320 1320 1318 1314 1309 1306 1303 1303 1299 1297 1296 1291 1287 1286 1285 1284 1284 1283 1282 1282 1280 1280 1278 1276 1274 1271 1270 1270 1268 1267 1259 1258 1255 1253 1247 1245 1241 1237 1232 1232 1232 1230 1229 1227 1226 1226 1226 1224 1223 1223 1220 1217 1217 1217 1216 1216 1215 1211 1211 1211 1209 1209 1207 1206 1206 1206 1206 1206 1201 1201 1201 1201 1201 1201 1200 1200 1200 1200 1198 1198 1198 1198 1198 1198 1198 1198 1198 1198 1198 1198 1198 1198 1198 1198 1198 1198 1198 1198 1197 1197 1197 1197 1197 1197 1197 1197 1197 1197 1196 1195 1195 1194 1193 1193 1193 1193 1193 1193 1193 1193 1193 1193 1193 1193 1193 1193 1193 1193 1193 1193 1193 1193 1193 1193 1193 1193 1193 1193 1193 1193 1193 1193 1193 1193 1193 1193 1193 1193 1193 1193 1193 1193 1193 1193 1193 1193 1193 1193 1193 1193 1193 1193 1193 1193 1193 1193 1193 1193 1193 1193 1193 1193 1193 1193 1193 1193 1193 1193 1193 1193 1193 1193 1193 1193 1193 1193 1193 1193 1193 1193 1193 1193 1193 1193 1193 1193 1193 1193 1193 1193 1193 1193 1193 1193 1193 1193 1193 1193 1193 1193 1193 1193 1193 1193 1193 1193 1193 1193 1193 1193 1193 1193 1193 1193 1193 1193 1193 1193 1193 1193 1193 1193 1193 1193 1193 1193 1193 1193 1193 1193 1193 1193 1193 1193 1193 1193 1193 1193 1193 1193 1193 1193 1193 1193 1193 1193 1193 1193 1193 1193 1193 1193 1193 1193 1193 1193 1193 1193 1193 1193 1193 1193 1193 1193 1193 1193 1193 1193 1193 1193 1193 1193 1193 1193 1193 1193 1193 1193 1193 1193 1193 1193 1193 1193 1193 1193 1193 1193 1193 1193 1193 1193 1193 1193 1193 1193 1193 1193 1193 1193 1193 1193 1193 1193 1193 1193 1193 1193 1193 1193 1193 1193 1193 1193 1193 1193 1193 1193 1193 1193 1193 1193 1193 1193 1193 1193 1193 1193 1193 1193 1193 1193 1193 1193 1193 1193 1193 1193 1193 1193 1193 1193 1193 1193 1193 1193 1193 1193 1193 1193 1193 1193 1193 1193 1193 1193 1193 1193 1193 1193 1193 1193 1193 1193 1193 1193 1193 1193 1193 1193 1193 1193 1193 1193 1193 1193 1193 1193 1193 1193 1193 1193 1193 1193 1193 1193 1193 1193 1193 1193 1193 1193 1193 1193 1193 1193 1193 1193 1193 1193 1193 1193 1193 1193 1193 1193 1193 1193 1193 1193 1193 1193 1193 1193 1193 1193 1193 1193 1193 1193 1193 1193 1193 1193 1193 1193 1193 1193 1193 1193 1193 1193 1193 1193 1193 1193 1193 1193 1193 1193 1193 1193 1193 1193 1193 1193 1193 1193 1193 1193 1193 1193 1193 1193 1193 1193 1193 1193 1193 1193 1193 1193 1193 1193 1193 1193 1193 1193 1193 1193 1193 1193 1193 1193 1193 1193 1193 1193 1193 1193 1193 1193 1193 1193 1193 1193 1193 1193 1193 1193 1193 1193 1193 1193 1193 1193 1193 1193 1193 1193 1193 1193 1193 1193 1193 1193 1193 1193 1193 1193 1193 1193 1193 1193 1193 1193 1193 1193 1193 1193 1193 1193 1193 1193 1193 1193 1193 1193 1193 1193 1193 1193 1193 1193 1193 1193 1193 1193 1193 1193 1193 1193 1193 1193 1193 1193 1193 1193 1193 1193 1193 1193 1193 1193 1193 1193 1193 1193 1193 1193 1193 1193 1193 1193 1193 1193 1193 1193 1193 1193 1193 1193 1193 1193 1193 1193 1193 1193 1193 1193 1193 1193 1193 1193 1193 1193 1193 1193 1193 1193 1193 1193 1193 1193 1193 1193 1193 1193 1193 1193 1193 1193 1193 
328 253 219 166 122 65 55 36 30 15 12 6 3 1 0 0 0 0 0 0 0 0 0 0 0 0 0 0 0 0 0 0 0 0 0 0 0 0 0 0 0 0 0 0 0 0 0 0 0 0 0 0 0 0 0 0 0 0 0 0 0 0 0 0 0 0 0 0 0 0 0 0 0 0 0 0 0 0 0 0 0 0 0 0 0 0 0 0 0 0 0 0 0 0 0 0 0 0 0 0 0 0 0 0 0 0 0 0 0 0 0 0 0 0 0 0 0 0 0 0 0 0 0 0 0 0 0 0 0 0 0 0 0 0 0 0 0 0 0 0 0 0 0 0 0 0 0 0 0 0 0 0 0 0 0 0 0 0 0 0 0 0 0 0 0 0 0 0 0 0 0 0 0 0 0 0 0 0 0 0 0 0 0 0 0 0 0 0 0 0 0 0 0 0 0 0 0 0 0 0 0 0 0 0 0 0 0 0 0 0 0 0 0 0 0 0 0 0 0 0 0 0 0 0 0 0 0 0 0 0 0 0 0 0 0 0 0 0 0 0 0 0 0 0 0 0 0 0 0 0 0 0 0 0 0 0 0 0 0 0 0 0 0 0 0 0 0 0 0 0 0 0 0 0 0 0 0 0 0 0 0 0 0 0 0 0 0 0 0 0 0 0 0 0 0 0 0 0 0 0 0 0 0 0 0 0 0 0 0 0 0 0 0 0 0 0 0 0 0 0 0 0 0 0 0 0 0 0 0 0 0 0 0 0 0 0 0 0 0 0 0 0 0 0 0 0 0 0 0 0 0 0 0 0 0 0 0 0 0 0 0 0 0 0 0 0 0 0 0 0 0 0 0 0 0 0 0 0 0 0 0 0 0 0 0 0 0 0 0 0 0 0 0 0 0 0 0 0 0 0 0 0 0 0 0 0 0 0 0 0 0 0 0 0 0 0 0 0 0 0 0 0 0 0 0 0 0 0 0 0 0 0 0 0 0 0 0 0 0 0 0 0 0 0 0 0 0 0 0 0 0 0 0 0 0 0 0 0 0 0 0 0 0 0 0 0 0 0 0 0 0 0 0 0 0 0 0 0 0 0 0 0 0 0 0 0 0 0 0 0 0 0 0 0 0 0 0 0 0 0 0 0 0 0 0 0 0 0 0 0 0 0 0 0 0 0 0 0 0 0 0 0 0 0 0 0 0 0 0 0 0 0 0 0 0 0 0 0 0 0 0 0 0 0 0 0 0 0 0 0 0 0 0 0 0 0 0 0 0 0 0 0 0 0 0 0 0 0 0 0 0 0 0 0 0 0 0 0 0 0 0 0 0 0 0 0 0 0 0 0 0 0 0 0 0 0 0 0 0 0 0 0 0 0 0 0 0 0 0 0 0 0 0 0 0 0 0 0 0 0 0 0 0 0 0 0 0 0 0 0 0 0 0 0 0 0 0 0 0 0 0 0 0 0 0 0 0 0 0 0 0 0 0 0 0 0 0 0 0 0 0 0 0 0 0 0 0 0 0 0 0 0 0 0 0 0 0 0 0 0 0 0 0 0 0 0 0 0 0 0 0 0 0 0 0 0 0 